k-points along high symmetry lines
40 ! 40 intersections
Line-mode
rec
0.0 0.0 0.0 	!G
0.0 0.5 0.0		!M

0.0 0.5 0.0		!M
-0.333 0.667 0.0	!K

-0.333 0.667 0.0	!K
0.0 0.0 0.0 	!G
