!Auto mesh
50
Line-mode
rec

0.0 0.0 0.0 !G
0.0 0.5 0.0 !M

0.0 0.5 0.0 !M
-0.3333 0.6667 0.0 !K

-0.3333 0.6667 0.0 !K
0.0 0.0 0.0 !G

